3282 3152 2880 2877 2790 2702 2632 2553 2508 2412 2380 2294 2274 2221 2143 2115 2071 2041 1991 1973 1949 1912 1874 1840 1797 1777 1752 1716 1697 1669 1648 1631 1597 1583 1547 1526 1505 1480 1469 1460 1437 1413 1395 1383 1375 1361 1356 1345 1330 1314 1307 1304 1290 1285 1279 1274 1264 1255 1243 1234 1218 1209 1202 1198 1196 1188 1186 1181 1177 1174 1161 1152 1149 1149 1147 1147 1141 1140 1138 1137 1132 1131 1128 1125 1122 1119 1116 1115 1114 1114 1113 1113 1111 1111 1111 1109 1108 1107 1105 1105 1103 1103 1103 1101 1101 1101 1100 1100 1099 1099 1096 1095 1095 1095 1094 1094 1093 1092 1091 1091 1088 1087 1087 1083 1083 1083 1080 1080 1080 1080 1080 1080 1079 1079 1079 1079 1079 1078 1075 1075 1075 1075 1075 1075 1074 1074 1074 1074 1074 1074 1074 1074 1074 1074 1074 1074 1074 1074 1074 1074 1074 1074 1074 1074 1074 1074 1074 1074 1074 1074 1074 1074 1074 1074 1074 1074 1074 1074 1074 1074 1074 1074 1074 1074 1074 1074 1074 1074 1074 1074 1074 1074 1074 1074 1074 1074 1074 1074 1074 1074 1074 1074 1074 1074 1074 1074 1074 1074 1074 1074 1074 1074 1074 1074 1074 1074 1074 1074 1074 1074 1074 1074 1074 1074 1074 1074 1074 1074 1074 1074 1074 1074 1074 1074 1074 1074 1074 1074 1074 1074 1074 1074 1074 1074 1074 1074 1074 1074 1074 1074 1074 1074 1074 1074 1074 1074 1074 1074 1074 1074 1074 1074 1074 1074 1074 1074 1074 1074 1074 1074 1074 1074 1074 1074 1074 1074 1074 1074 1074 1074 1074 1074 1074 1074 1074 1074 1074 1074 1074 1074 1074 1074 1074 1074 1074 1074 1074 1074 1074 1074 1074 1074 1074 1074 1074 1074 1074 1074 1074 1074 1074 1074 1074 1074 1074 1074 1074 1074 1074 1074 1074 1074 1074 1074 1074 1074 1074 1074 1074 1074 1074 1074 1074 1074 1074 1074 1074 1074 1074 1074 1074 1074 1074 1074 1074 1074 1074 1074 1074 1074 1074 1074 1074 1074 1074 1074 1074 1074 1074 1074 1074 1074 1074 1074 1074 1074 1074 1074 1074 1074 1074 1074 1074 1074 1074 1074 1074 1074 1074 1074 1074 1074 1074 1074 1074 1074 1074 1074 1074 1074 1074 1074 1074 1074 1074 1074 1074 1074 1074 1074 1074 1074 1074 1074 1074 1074 1074 1074 1074 1074 1074 1074 1074 1074 1074 1074 1074 1074 1074 1074 1074 1074 1072 1072 1072 1072 1072 1063 1063 1063 1057 1057 1057 1057 1057 1057 1057 1057 1057 1057 1057 1056 1056 1056 1056 1056 1056 1056 1056 1056 1056 1056 1056 1056 1056 1056 1056 1056 1056 1056 1056 1056 1056 1056 1056 1056 1056 1056 1056 1056 1056 1056 1056 1056 1056 1056 1056 1056 1056 1056 1056 1056 1056 1056 1056 1056 1056 1056 1056 1056 1056 1056 1056 1056 1056 1056 1056 1056 1056 1056 1056 1056 1056 1056 1056 1056 1056 1056 1056 1056 1056 1056 1056 1056 1056 1056 1056 1056 1056 1056 1056 1056 1056 1056 1056 1056 1056 1056 1056 1056 1056 1056 1056 1056 1056 1056 1056 1056 1056 1056 1056 1056 1056 1056 1056 1056 1056 1056 1056 1056 1056 1056 1056 1056 1056 1056 1056 1056 1056 1056 1056 1056 1056 1056 1056 1056 1056 1056 1056 1056 1056 1056 1056 1056 1056 1056 1056 1056 1056 1056 1056 1056 1056 1056 1056 1056 1056 1056 1056 1056 1056 1056 1056 1056 1056 1056 1056 1056 1056 1056 1056 1056 1056 1056 1056 1056 1056 1056 1056 1056 1056 1056 1056 1056 1056 1056 1056 1056 1056 1056 1056 1056 1056 1056 1056 1056 1056 1056 1056 1056 1056 1056 1056 1056 1056 1056 1056 1056 1056 1056 1056 1056 1056 1056 1056 1056 1056 1056 1056 1056 1056 1056 1056 1056 1056 1056 1056 1056 1056 1056 1056 1056 1056 1056 1056 1056 1056 1056 1056 1056 1056 1056 1056 1056 1056 1056 1056 1056 1056 1056 1056 1056 1056 1056 1056 1056 1056 1056 1056 1056 1056 1056 1056 1056 1056 1056 1056 1056 1056 1056 1056 1056 1056 1056 1056 1056 1056 1056 1056 1056 1056 1056 1056 1056 1056 1056 1056 1056 1056 1056 1056 1056 1056 1056 1056 1056 1056 1056 1056 1056 1056 1056 1056 1056 1056 1056 1056 1056 1056 1056 1056 1056 1056 1056 1056 1056 1056 1056 1056 1056 1056 1056 1056 1056 1056 1056 1056 1056 1056 1056 1056 1056 1056 1056 1056 1056 1056 1056 1056 1056 1056 1056 1056 1056 1056 1056 1056 1056 1056 1056 1056 1056 1056 1056 1056 1056 1056 1056 1056 1056 1056 1056 1056 1056 1056 1056 1056 1056 1056 1056 1056 1056 1056 1056 1056 1056 1056 1056 1056 1056 1056 1056 1056 1056 1056 1056 1056 1056 1056 1056 1056 1056 1056 1056 1056 1056 1056 1056 1056 1056 1056 1056 1056 1056 1056 1056 1056 1056 1056 1056 1056 1056 1056 1056 1056 1056 1056 1056 1056 1056 1056 1056 1056 1056 1056 1056 1056 1056 1056 1056 1056 1056 1056 1056 1056 1056 1056 1056 1056 1056 1056 1056 1056 1056 1056 1056 1056 1056 1056 1056 1056 1056 1056 1056 1056 1056 1056 1056 1056 1056 1056 1056 1056 1056 1056 1056 1056 1056 1056 1056 1056 1056 1056 1056 1056 1056 1056 1056 1056 1056 1056 1056 1056 1056 1056 1056 1056 1056 1056 1056 1056 1056 1056 1056 1056 1056 1056 1056 1056 1056 1056 1056 1056 1056 1056 1056 1056 1056 1056 1056 1056 1056 1056 1056 1056 1056 1056 1056 1056 1056 1056 1056 1056 1056 1056 1056 1056 1056 1056 1056 1056 1056 1056 1056 1056 1056 1056 1056 1056 1056 1056 1056 1056 1056 1056 1056 1056 1056 1056 1056 1056 1056 1056 1056 1056 1056 1056 1056 1056 1056 1056 1056 1056 1056 1056 1056 1056 1056 1056 1056 1056 1056 1056 1056 1056 1056 1056 1056 1056 1056 1056 1056 1056 1056 1056 1056 1056 1056 1056 1056 1056 1056 1056 1056 1056 1056 1056 1056 1056 1056 1056 1056 1056 1056 1056 1056 1056 1056 1056 1056 1056 1056 1056 1056 1056 1056 1056 1056 1056 1056 1056 1056 1056 1056 1056 1056 1056 1056 1056 1056 1056 1056 1056 1056 1056 1056 1056 1056 1056 1056 1056 1056 1056 1056 1056 1056 1056 1056 1056 1056 1056 1056 1056 1056 1056 1056 1056 1056 1056 1056 1056 1056 1056 1056 1056 1056 1056 1056 1056 1056 1056 1056 1056 1056 1056 1056 1056 1056 1056 1056 1056 1056 1056 1056 1056 1056 1056 1056 1056 1056 1056 1056 1056 1056 1056 1056 1056 1056 1056 1056 1056 1056 1056 1056 1056 1056 1056 1056 1056 1056 1056 1056 1056 1056 1056 1056 1056 1056 1056 1056 1056 1056 1056 1056 1056 1056 1056 1056 1056 1056 1056 1056 1056 1056 1056 1056 1056 1056 1056 1056 1056 1056 1056 1056 1056 1056 1056 1056 1056 1056 1056 1056 1056 1056 1056 1056 1056 1056 1056 1056 1056 1056 1056 1056 1056 1056 1056 1056 1056 1056 1056 1056 1056 1056 1056 1056 1056 1056 1056 1056 1056 1056 1056 1056 1056 1056 1056 1056 1056 1056 1056 1056 1056 1056 1056 1056 1056 1056 1056 1056 1056 1056 1056 1056 1056 1056 1056 1056 1056 1056 1056 1056 1056 1056 1056 1056 1056 1056 1056 1056 1056 1056 1056 1056 1056 1056 1056 1056 1056 1056 1056 1056 1056 1056 1056 1056 1056 1056 1056 1056 1056 1056 1056 1056 1056 1056 1056 1056 1056 1056 1056 1056 1056 1056 1056 1056 1056 1056 1056 1056 1056 1056 1056 1056 1056 1056 1056 1056 1056 1056 1056 1056 1056 1056 1056 1056 1056 1056 1056 1056 1056 1056 1056 1056 1056 1056 1056 1056 1056 1056 1056 1056 1056 1056 1056 1056 1056 1056 1056 1056 1056 1056 1056 1056 1056 1056 1056 1056 1056 1056 1056 1056 1056 1056 1056 1056 1056 1056 1056 1056 1056 1056 1056 1056 1056 1056 1056 1056 1056 1056 1056 1056 1056 1056 1056 1056 1056 1056 1056 1056 1056 1056 1056 1056 1056 1056 1056 1056 1056 1056 1056 1056 1056 1056 1056 1056 1056 1056 1056 1056 1056 1056 1056 1056 1056 1056 1056 1056 1056 1056 1056 1056 1056 1056 1056 1056 1056 1056 1056 1056 1056 1056 1056 1056 1056 1056 1056 1056 1056 1056 1056 1056 1056 1056 1056 1056 1056 1056 1056 1056 1056 1056 1056 1056 1056 1056 1056 1056 1056 1056 1056 1056 1056 1056 1056 1056 1056 1056 1056 1056 1056 1056 1056 1056 1056 1056 1056 1056 1056 1056 1056 1056 1056 1056 1056 1056 1056 1056 1056 1056 1056 1056 1056 1056 1056 1056 1056 1056 1056 1056 1056 1056 1056 1056 1056 1056 1056 1056 1056 1056 1056 1056 1056 1056 1056 1056 1056 1056 1056 1056 
3683 3473 3308 3171 3043 2888 2813 2738 2665 2599 2538 2480 2423 2377 2316 2271 2226 2165 2122 2079 2042 1991 1959 1928 1894 1857 1822 1786 1756 1728 1698 1671 1648 1627 1601 1575 1548 1525 1501 1481 1469 1458 1442 1414 1396 1382 1374 1365 1354 1347 1337 1321 1309 1302 1291 1286 1280 1274 1266 1253 1240 1232 1219 1208 1201 1199 1197 1189 1187 1182 1176 1169 1161 1157 1151 1148 1147 1146 1144 1140 1138 1137 1135 1130 1127 1124 1121 1118 1115 1114 1114 1113 1113 1112 1112 1111 1110 1109 1107 1107 1106 1104 1103 1102 1102 1102 1100 1100 1100 1100 1099 1099 1098 1095 1094 1094 1094 1093 1093 1092 1091 1090 1090 1087 1086 1085 1082 1082 1082 1080 1080 1080 1079 1079 1079 1079 1079 1078 1078 1078 1077 1075 1075 1075 1074 1074 1074 1074 1074 1074 1074 1074 1074 1074 1074 1074 1074 1074 1074 1074 1074 1074 1074 1074 1074 1074 1074 1074 1074 1074 1074 1074 1074 1074 1074 1074 1074 1074 1074 1074 1074 1074 1074 1074 1074 1074 1074 1074 1074 1074 1074 1074 1074 1074 1074 1074 1074 1074 1074 1074 1074 1074 1074 1074 1074 1074 1074 1074 1074 1074 1074 1074 1074 1074 1074 1074 1074 1074 1074 1074 1074 1074 1074 1074 1074 1074 1074 1074 1074 1074 1074 1074 1074 1074 1074 1074 1074 1074 1074 1074 1074 1074 1074 1074 1074 1074 1074 1074 1074 1074 1074 1074 1074 1074 1074 1074 1074 1074 1074 1074 1074 1074 1074 1074 1074 1074 1074 1074 1074 1074 1074 1074 1074 1074 1074 1074 1074 1074 1074 1074 1074 1074 1074 1074 1074 1074 1074 1074 1074 1074 1074 1074 1074 1074 1074 1074 1074 1074 1074 1074 1074 1074 1074 1074 1074 1074 1074 1074 1074 1074 1074 1074 1074 1074 1074 1074 1074 1074 1074 1074 1074 1074 1074 1074 1074 1074 1074 1074 1074 1074 1074 1074 1074 1074 1074 1074 1074 1074 1074 1074 1074 1074 1074 1074 1074 1074 1074 1074 1074 1074 1074 1074 1074 1074 1074 1074 1074 1074 1074 1074 1074 1074 1074 1074 1074 1074 1074 1074 1074 1074 1074 1074 1074 1074 1074 1074 1074 1074 1074 1074 1074 1074 1074 1074 1074 1074 1074 1074 1074 1074 1074 1074 1074 1074 1074 1074 1074 1074 1074 1074 1074 1074 1074 1074 1074 1074 1074 1074 1074 1074 1074 1074 1074 1074 1074 1074 1074 1074 1074 1074 1074 1074 1073 1073 1073 1072 1072 1071 1071 1071 1065 1062 1057 1057 1057 1057 1057 1057 1057 1057 1057 1056 1056 1056 1056 1056 1056 1056 1056 1056 1056 1056 1056 1056 1056 1056 1056 1056 1056 1056 1056 1056 1056 1056 1056 1056 1056 1056 1056 1056 1056 1056 1056 1056 1056 1056 1056 1056 1056 1056 1056 1056 1056 1056 1056 1056 1056 1056 1056 1056 1056 1056 1056 1056 1056 1056 1056 1056 1056 1056 1056 1056 1056 1056 1056 1056 1056 1056 1056 1056 1056 1056 1056 1056 1056 1056 1056 1056 1056 1056 1056 1056 1056 1056 1056 1056 1056 1056 1056 1056 1056 1056 1056 1056 1056 1056 1056 1056 1056 1056 1056 1056 1056 1056 1056 1056 1056 1056 1056 1056 1056 1056 1056 1056 1056 1056 1056 1056 1056 1056 1056 1056 1056 1056 1056 1056 1056 1056 1056 1056 1056 1056 1056 1056 1056 1056 1056 1056 1056 1056 1056 1056 1056 1056 1056 1056 1056 1056 1056 1056 1056 1056 1056 1056 1056 1056 1056 1056 1056 1056 1056 1056 1056 1056 1056 1056 1056 1056 1056 1056 1056 1056 1056 1056 1056 1056 1056 1056 1056 1056 1056 1056 1056 1056 1056 1056 1056 1056 1056 1056 1056 1056 1056 1056 1056 1056 1056 1056 1056 1056 1056 1056 1056 1056 1056 1056 1056 1056 1056 1056 1056 1056 1056 1056 1056 1056 1056 1056 1056 1056 1056 1056 1056 1056 1056 1056 1056 1056 1056 1056 1056 1056 1056 1056 1056 1056 1056 1056 1056 1056 1056 1056 1056 1056 1056 1056 1056 1056 1056 1056 1056 1056 1056 1056 1056 1056 1056 1056 1056 1056 1056 1056 1056 1056 1056 1056 1056 1056 1056 1056 1056 1056 1056 1056 1056 1056 1056 1056 1056 1056 1056 1056 1056 1056 1056 1056 1056 1056 1056 1056 1056 1056 1056 1056 1056 1056 1056 1056 1056 1056 1056 1056 1056 1056 1056 1056 1056 1056 1056 1056 1056 1056 1056 1056 1056 1056 1056 1056 1056 1056 1056 1056 1056 1056 1056 1056 1056 1056 1056 1056 1056 1056 1056 1056 1056 1056 1056 1056 1056 1056 1056 1056 1056 1056 1056 1056 1056 1056 1056 1056 1056 1056 1056 1056 1056 1056 1056 1056 1056 1056 1056 1056 1056 1056 1056 1056 1056 1056 1056 1056 1056 1056 1056 1056 1056 1056 1056 1056 1056 1056 1056 1056 1056 1056 1056 1056 1056 1056 1056 1056 1056 1056 1056 1056 1056 1056 1056 1056 1056 1056 1056 1056 1056 1056 1056 1056 1056 1056 1056 1056 1056 1056 1056 1056 1056 1056 1056 1056 1056 1056 1056 1056 1056 1056 1056 1056 1056 1056 1056 1056 1056 1056 1056 1056 1056 1056 1056 1056 1056 1056 1056 1056 1056 1056 1056 1056 1056 1056 1056 1056 1056 1056 1056 1056 1056 1056 1056 1056 1056 1056 1056 1056 1056 1056 1056 1056 1056 1056 1056 1056 1056 1056 1056 1056 1056 1056 1056 1056 1056 1056 1056 1056 1056 1056 1056 1056 1056 1056 1056 1056 1056 1056 1056 1056 1056 1056 1056 1056 1056 1056 1056 1056 1056 1056 1056 1056 1056 1056 1056 1056 1056 1056 1056 1056 1056 1056 1056 1056 1056 1056 1056 1056 1056 1056 1056 1056 1056 1056 1056 1056 1056 1056 1056 1056 1056 1056 1056 1056 1056 1056 1056 1056 1056 1056 1056 1056 1056 1056 1056 1056 1056 1056 1056 1056 1056 1056 1056 1056 1056 1056 1056 1056 1056 1056 1056 1056 1056 1056 1056 1056 1056 1056 1056 1056 1056 1056 1056 1056 1056 1056 1056 1056 1056 1056 1056 1056 1056 1056 1056 1056 1056 1056 1056 1056 1056 1056 1056 1056 1056 1056 1056 1056 1056 1056 1056 1056 1056 1056 1056 1056 1056 1056 1056 1056 1056 1056 1056 1056 1056 1056 1056 1056 1056 1056 1056 1056 1056 1056 1056 1056 1056 1056 1056 1056 1056 1056 1056 1056 1056 1056 1056 1056 1056 1056 1056 1056 1056 1056 1056 1056 1056 1056 1056 1056 1056 1056 1056 1056 1056 1056 1056 1056 1056 1056 1056 1056 1056 1056 1056 1056 1056 1056 1056 1056 1056 1056 1056 1056 1056 1056 1056 1056 1056 1056 1056 1056 1056 1056 1056 1056 1056 1056 1056 1056 1056 1056 1056 1056 1056 1056 1056 1056 1056 1056 1056 1056 1056 1056 1056 1056 1056 1056 1056 1056 1056 1056 1056 1056 1056 1056 1056 1056 1056 1056 1056 1056 1056 1056 1056 1056 1056 1056 1056 1056 1056 1056 1056 1056 1056 1056 1056 1056 1056 1056 1056 1056 1056 1056 1056 1056 1056 1056 1056 1056 1056 1056 1056 1056 1056 1056 1056 1056 1056 1056 1056 1056 1056 1056 1056 1056 1056 1056 1056 1056 1056 1056 1056 1056 1056 1056 1056 1056 1056 1056 1056 1056 1056 1056 1056 1056 1056 1056 1056 1056 1056 1056 1056 1056 1056 1056 1056 1056 1056 1056 1056 1056 1056 1056 1056 1056 1056 1056 1056 1056 1056 1056 1056 1056 1056 1056 1056 1056 1056 1056 1056 1056 1056 1056 1056 1056 1056 1056 1056 1056 1056 1056 1056 1056 1056 1056 1056 1056 1056 1056 1056 1056 1056 1056 1056 1056 1056 1056 1056 1056 1056 1056 1056 1056 1056 1056 1056 1056 1056 1056 1056 1056 1056 1056 1056 1056 1056 1056 1056 1056 1056 1056 1056 1056 1056 1056 1056 1056 1056 1056 1056 1056 1056 1056 1056 1056 1056 1056 1056 1056 1056 1056 1056 1056 1056 1056 1056 1056 1056 1056 1056 1056 1056 1056 1056 1056 1056 1056 1056 1056 1056 1056 1056 1056 1056 1056 1056 1056 1056 1056 1056 1056 1056 1056 1056 1056 1056 1056 1056 1056 1056 1056 1056 1056 1056 1056 1056 1056 1056 1056 1056 1056 1056 1056 1056 1056 1056 1056 1056 1056 1056 1056 1056 1056 1056 1056 1056 1056 1056 1056 1056 1056 1056 1056 1056 1056 1056 1056 1056 1056 1056 1056 1056 1056 1056 1056 1056 1056 1056 1056 1056 1056 1056 1056 1056 1056 1056 1056 1056 1056 1056 1056 1056 1056 1056 1056 1056 1056 1056 1056 1056 1056 1056 1056 1056 1056 1056 1056 1056 1056 1056 1056 1056 1056 1056 1056 1056 1056 1056 1056 1056 1056 1056 1056 1056 1056 1056 1056 1056 1056 1056 1056 1056 1056 1056 1056 1056 1056 1056 1056 1056 1056 1056 1056 1056 1056 1056 1056 1056 1056 1056 1056 1056 1056 1056 1056 